p cnf 26 64
a 20 13 0
e 1 2 3 4 5 6 7 8 9 10 11 12 14 15 16 17 18 19 21 22 23 24 25 26 0
1 -2 -3 0
-1 2 -3 0
1 2 3 0
-1 -2 3 0
-4 2 -5 0
4 -2 -5 0
-4 -2 5 0
4 2 5 0
6 3 0
6 -5 0
-3 5 -6 0
7 2 0
7 -4 0
-2 4 -7 0
-9 -8 0
-9 8 0
-10 -7 0
-10 9 0
7 -9 10 0
12 11 0
12 11 0
-11 -12 0
14 2 0
14 13 0
-2 -13 -14 0
14 -4 -15 0
-14 4 -15 0
14 4 15 0
-14 -4 15 0
18 -16 0
18 -17 0
16 17 -18 0
-19 16 0
-19 -7 0
-16 7 19 0
20 -19 0
20 7 0
19 -7 -20 0
21 20 0
21 -7 0
-20 7 -21 0
22 -18 0
22 -21 0
18 21 -22 0
-15 22 -23 0
15 -22 -23 0
-15 -22 23 0
15 22 23 0
24 12 0
24 23 0
-12 -23 -24 0
25 10 0
25 24 0
-10 -24 -25 0
26 -6 0
26 -25 0
6 25 -26 0
-9 16 22 -4 6 -5 0
25 -17 24 -21 18 0
-24 11 0
-4 25 0
10 -13 -3 0
-11 16 13 18 25 21 9 0
26 0
